
Gurobi 11.0.1 (win64) logging started Thu Mar 14 08:01:50 2024

Set parameter LogFile to value "C:\Projetos\Job_Rotation_Algorithms\Outputs\GurobiLogs\gurobi_log-output-20_ros-c44-CostaMirallesModel-NoExtraConstraint-2.log"
Gurobi Optimizer version 11.0.1 build v11.0.1rc0 (win64 - Windows 10.0 (19045.2))

CPU model: 11th Gen Intel(R) Core(TM) i7-1165G7 @ 2.80GHz, instruction set [SSE2|AVX|AVX2|AVX512]
Thread count: 4 physical cores, 8 logical processors, using up to 1 threads


Gurobi 11.0.1 (win64) logging started Fri Mar 15 00:39:16 2024

Set parameter LogFile to value "C:\Projetos\Job_Rotation_Algorithms\Outputs\GurobiLogs\gurobi_log-output-20_ros-c44-CostaMirallesModel-NoExtraConstraint-2.log"
Gurobi Optimizer version 11.0.1 build v11.0.1rc0 (win64 - Windows 10.0 (19045.2))

CPU model: 11th Gen Intel(R) Core(TM) i7-1165G7 @ 2.80GHz, instruction set [SSE2|AVX|AVX2|AVX512]
Thread count: 4 physical cores, 8 logical processors, using up to 1 threads


Gurobi 11.0.1 (win64) logging started Sat Mar 16 12:25:47 2024

Set parameter LogFile to value "C:\Projetos\Job_Rotation_Algorithms\Outputs\GurobiLogs\gurobi_log-output-20_ros-c44-CostaMirallesModel-NoExtraConstraint-2.log"
Gurobi Optimizer version 11.0.1 build v11.0.1rc0 (win64 - Windows 10.0 (19045.2))

CPU model: 11th Gen Intel(R) Core(TM) i7-1165G7 @ 2.80GHz, instruction set [SSE2|AVX|AVX2|AVX512]
Thread count: 4 physical cores, 8 logical processors, using up to 1 threads


Gurobi 11.0.1 (win64) logging started Sat Mar 16 22:23:02 2024

Set parameter LogFile to value "C:\Projetos\Job_Rotation_Algorithms\Outputs\GurobiLogs\gurobi_log-output-20_ros-c44-CostaMirallesModel-NoExtraConstraint-2.log"
Gurobi Optimizer version 11.0.1 build v11.0.1rc0 (win64 - Windows 10.0 (19045.2))

CPU model: 11th Gen Intel(R) Core(TM) i7-1165G7 @ 2.80GHz, instruction set [SSE2|AVX|AVX2|AVX512]
Thread count: 4 physical cores, 8 logical processors, using up to 1 threads

WLS license 901039 - registered to Bitka Analytics
Optimize a model with 413 rows, 772 columns and 6012 nonzeros
Model fingerprint: 0x949fc17e
Variable types: 2 continuous, 770 integer (770 binary)
Coefficient statistics:
  Matrix range     [1e+00, 3e+01]
  Objective range  [1e+00, 1e+00]
  Bounds range     [1e+00, 9e+01]
  RHS range        [1e+00, 9e+01]
Presolve removed 34 rows and 130 columns
Presolve time: 0.03s
Presolved: 379 rows, 642 columns, 4581 nonzeros
Variable types: 0 continuous, 642 integer (641 binary)

Root relaxation: objective 4.900000e+01, 284 iterations, 0.00 seconds (0.00 work units)

    Nodes    |    Current Node    |     Objective Bounds      |     Work
 Expl Unexpl |  Obj  Depth IntInf | Incumbent    BestBd   Gap | It/Node Time

     0     0   49.00000    0    3          -   49.00000      -     -    0s
     0     0   49.00000    0   88          -   49.00000      -     -    0s
     0     0   49.00000    0   78          -   49.00000      -     -    0s
     0     0   49.00000    0   15          -   49.00000      -     -    0s
     0     0   49.00000    0   15          -   49.00000      -     -    0s
     0     0   49.00000    0   46          -   49.00000      -     -    0s
     0     0   49.00000    0   49          -   49.00000      -     -    0s
     0     0   49.00000    0   48          -   49.00000      -     -    0s
     0     0   49.00000    0   11          -   49.00000      -     -    0s
     0     2   49.00000    0    8          -   49.00000      -     -    0s
*  172    59              12      46.0000000   49.00000  6.52%  62.0    0s

Cutting planes:
  Gomory: 1
  Cover: 555
  Implied bound: 41
  Clique: 71
  MIR: 36
  StrongCG: 3
  GUB cover: 5
  Inf proof: 4
  Zero half: 1
  Mod-K: 1
  RLT: 3

Explored 711 nodes (70392 simplex iterations) in 2.64 seconds (2.10 work units)
Thread count was 1 (of 8 available processors)

Solution count 1: 46 

Optimal solution found (tolerance 1.00e-03)
Best objective 4.600000000000e+01, best bound 4.600000000000e+01, gap 0.0000%
